W=6;
H=5;

MAX_TIME=19;
MAX_TRACKS=17;

TARGET=(3,6);

TRAINS=[(1,2,RIGHT),(5,1,RIGHT)];

INIT_POS=[
(1,2,STRAIGHT_RL),
(1,3,STRAIGHT_RL),
(3,5,STRAIGHT_RL),
(3,6,STRAIGHT_RL),
(4,2,CORNER_DR),
(4,3,CORNER_DL),
(5,1,STRAIGHT_RL),
(5,2,SWITCH_L_R_T),
(5,3,DSWITCH_L_R_T),
(5,4,STRAIGHT_RL),
];
TUNNEL_PAIRS=[];

GATES=[
(3,5,1,false),
];
ACTIVATIONS=[
(1,3,2),
(5,4,1),
];

DSWITCHES=[
(5,3,2),
];
STATIONS=[];
